Route #1: 64 7 32 61 77 4 78 38 69 25 20 48 58 21 9 28 6 62 47 73 23 5
Route #2: 33 59 55 10 70 26 18 34 16 36 56 57 27 17 42 66
Route #3: 2 63 45 15 3 44 79 76 31 40 24 13 75 65 60
Route #4: 41
Route #5: 12 19 80 35 53 11 49 29 72 37 14 74
Route #6: 22 8 30 54 52 71 67 39 51 46
Route #7: 50 43 68
Route #8: 1
Route #9: 
Route #10: 
cost 2476.082168609162
